%block lattice_cart
5.43 0.00 0.00
0.00 5.43 0.00
0.00 0.00 5.43
%endblock lattice_cart
%block positions_abs
Si 0.000 0.000 0.000
Si 1.360 1.360 1.360
%endblock positions_abs
