%BLOCK LATTICE_CART
      14.871751000000007       0.000000000000000       0.000000000000000
       0.000000000000000      14.871751000000003       0.000000000000000
       0.000000000000000       0.000000000000000      14.871751000000003
%ENDBLOCK LATTICE_CART

%BLOCK POSITIONS_FRAC
 Pd  -0.1399612503195260    0.0378629864253437   -0.0335737739174472
 Pd  -0.0352562630621976    0.2386057739048500    0.2129656835387970
 Pd   0.1501564217152410   -0.0924376848861959    0.0848197065587495
 Pd   0.1661296795630490    0.2104520145968490   -0.0275226428122328
 Pd   0.3208973304691500    0.1456388237043980    0.2696644896596990
 Pd   0.0540672727513845    0.1026958360563530    0.0903509620824088
 Pd   0.1156680322911050    0.3880278758305609    0.2092956487702130
 Pd   0.2869961789391490    0.1641715654818370    0.0927172537188146
 Pd   0.2890262173173250   -0.0938500078097565   -0.0784004072385758
 Pd   0.4236899474053480    0.2623072405921800    0.1678523799004890
 Pd   0.4522158883700280    0.0845126510447545    0.1426936335537390
 Pd   0.4846082299056610    0.2063187938521750    0.0123798194470390
 Pd   0.6362846011919089    0.0897719198077809    0.1835531745653900
 Pd   0.3124985262591140   -0.0148534267277061    0.0929574368276691
 Pd   0.4243943568603410    0.3034096280812750    0.3449647772365100
 Pd   0.6295119641019490    0.2597155559785560   -0.0674572343575364
 Pd   0.7267025912576360   -0.0298308585679362    0.0791221302866205
 Pd   0.6076768138196630    0.2599774044705300    0.1308482799444820
 Pd   0.8458914557805030   -0.1594569136161770    0.1908227109916900
 Pd   0.8251604947963330    0.2038868838488790   -0.1187126504853780
 Pd   0.8724305134630800    0.0629733508432071    0.1475804006911150
 Pd   0.7283258445315550    0.1489892508962060    0.0414212704639194
 Pd   0.7755122411579530    0.2111019147252290    0.1989002000027690
 Pd   0.8986271440976450    0.2114307255562730    0.0517800147124006
 Pd   0.0501574989911355    0.3115382303991039    0.0560672496186623
 Pd   0.0123661045946613    0.5240367267627520    0.2019709206019910
 Pd   0.2292746049458260    0.3436845794775410    0.0860482908742093
 Pd   0.0321955280804769    0.4645266090894240   -0.1264183256730410
 Pd   0.3889545538040930    0.4760482787467480    0.2750762430547320
 Pd   0.1170938992696590    0.4836556130363340    0.0375097382610299
 Pd   0.1095093856279470    0.6383524788721050    0.2932832291861670
 Pd   0.2228686148704010    0.6462745158595140    0.0006534452162483
 Pd   0.3423451154750680    0.2944219830523860   -0.0302096265609810
 Pd   0.3742958796998420    0.6337945673792760    0.0919820050128941
 Pd   0.5481106417774229    0.3970361151145400    0.2335126878663570
 Pd   0.5016380243422280    0.5594729845670480   -0.0121654410174716
 Pd   0.5486918504786620    0.4083477618617080    0.4123148187409570
 Pd   0.4152322006094710    0.4203082633961940    0.1039727358334110
 Pd   0.5121837661060890    0.5564967601952000    0.1618497538629000
 Pd   0.6150814139918840    0.4335597137869540    0.0668562166891045
 Pd   0.7579073250550760    0.3244567070946280    0.0361044338966086
 Pd   0.6831920982770821    0.5487746378310920    0.1996851440872720
 Pd   0.9081487020382230    0.3917593359141210    0.1361171023029680
 Pd   0.8520301025960670    0.5130501213538941   -0.1189113424720670
 Pd   0.8482532962164040    0.5216670094658730    0.2620100639447210
 Pd   0.7824592140508621    0.4998068231506380    0.0496901599355344
 Pd   0.7694902461131550    0.6871613897551960    0.2572088792325470
 Pd   0.9491813999432560    0.5483124599705340    0.0365106409884133
 Pd   0.0572372217804409    0.6387241867242111   -0.0708575742965680
 Pd   0.0878744831016534    0.7976966190600580    0.2114297312053480
 Pd   0.2547356438029780    0.6977450858394189    0.2074572940584620
 Pd   0.1317117460822290    0.7989681082547180   -0.0478318078093840
 Pd   0.1857715223954350    0.7776820277588838    0.3732253759749490
 Pd   0.0983681632097113    0.6473407426164980    0.1151205268735690
 Pd   0.1868729100747640    1.0385591482370100    0.2027132285147570
 Pd   0.2536358103892260    0.8715416312271499    0.2235545618446260
 Pd   0.5219754539732570    0.7458276005906330    0.0436972122768982
 Pd   0.3529514621762879    0.8010021839271280    0.3605610596193920
 Pd   0.5858771611531120    0.7074091180886909    0.2083198499930180
 Pd   0.4497468845532140    0.9177906657602619    0.0184950960450043
 Pd   0.5200780330075160    0.8257827588728250    0.3247509473194469
 Pd   0.4191976497805200    0.8027601202563759    0.1763900041720410
 Pd   0.4086742223050840    0.9629343465288061    0.2598306956861860
 Pd   0.5619916699609761    0.9184930353320681    0.1557293897984920
 Pd   0.6582074738948190    0.6285988627067950    0.0408683152864024
 Pd   0.6831415624395730    0.8459495456047130    0.2688947992441640
 Pd   0.9888542485365919    0.7683007087752819    0.0549503634320261
 Pd   0.8530165214204070    0.8623620169680550    0.0126169878428268
 Pd   0.9436605707737630    0.6899780371712120    0.2250626563948680
 Pd   0.6917255220916270    0.7989147302420729    0.0945256904119107
 Pd   0.7573252198144050    0.9955263497966880    0.2680556956131510
 Pd   0.9897142245306770    0.9340751557557189    0.1511004448321020
 Pd  -0.0782160796055433   -0.0643194433504185    0.3228437115726570
 Pd  -0.0068095837984248    0.2228831166286390    0.3926223873286520
 Pd   0.1272444086704080   -0.0185707045250981    0.4970702587449559
 Pd   0.1466443266227150    0.2132466994718020    0.2024756228966970
 Pd   0.2834205522589550    0.0544515867087185    0.5179749410538270
 Pd   0.0206058039997234    0.0782595467778704    0.2647517095420650
 Pd   0.1342595281969720    0.1744733561897960    0.5205268733081010
 Pd   0.1643104008634490    0.1128487002393630    0.3634762025057630
 Pd   0.2713898861552020   -0.0316076894533709    0.3688494828537370
 Pd   0.2983672154248690    0.2203216314098010    0.4399448307891420
 Pd   0.5651834331693040    0.0536880880265096    0.5017294903773490
 Pd   0.5216877160192870    0.1685966329246720    0.2887121183962470
 Pd   0.6695594535717721    0.1807834102561670    0.5798387321713510
 Pd   0.4188562922357790    0.0824188553662351    0.4026709770033770
 Pd   0.3362762519288190    0.2939973190354400    0.6773211071167979
 Pd   0.5458793012791590    0.2324647870077400    0.4628306789304630
 Pd   0.6878849241021390    0.1239403143589530    0.3888464977972250
 Pd   0.6518638398989510    0.2828056358912010    0.3199449875493570
 Pd   0.8031953396672750   -0.0081074338209264    0.4497700821737289
 Pd   0.8606779199956181    0.1212894113915590    0.3244015038993400
 Pd   0.9814439286988450    0.0582811628385027    0.4482470146553890
 Pd   0.8299156267368391    0.1784624124825320    0.4879751577795670
 Pd   0.6718371542076600    0.2004078858677330    0.7671590933265110
 Pd   0.8288531333030580    0.3009786051917240    0.3442140522682320
 Pd  -0.0219265076715550    0.3875875190535210    0.3134246896608930
 Pd   0.0317957687561248    0.3624759118581140    0.4949547824948230
 Pd   0.1498334505573900    0.2976889653724780    0.3705782190108899
 Pd   0.2399733750649360    0.5192329495371370    0.1768803562270620
 Pd   0.2117093951057110    0.3306469099526470    0.5546942971459489
 Pd   0.1191898944916400    0.4804153227748030    0.3705176506200270
 Pd   0.1316083521514610    0.4896652063534100    0.5492203645407950
 Pd   0.2673155954169660    0.5909721024761701    0.3615509074796130
 Pd   0.2804826461210730    0.3317559321570460    0.2504030305999700
 Pd   0.3037158033819479    0.4906546108494849    0.5711702120759951
 Pd   0.4129583279387830    0.3467026296090350    0.5224356266393190
 Pd   0.4218993540045130    0.5295238427656390    0.4441077806465910
 Pd   0.5844859082133350    0.4069032656549030    0.5795332440180691
 Pd   0.2830357177080170    0.4138135625349880    0.4101091439758570
 Pd   0.4503709388772900    0.6008977482846950    0.6055315805348041
 Pd   0.5637379195693640    0.5680683027059669    0.3341029930081420
 Pd   0.7397302478032560    0.3844436459396330    0.2020051947948050
 Pd   0.6038276278042291    0.5773549842786149    0.5109683722451300
 Pd   0.7187083799517801    0.3223038494627910    0.4868936521908800
 Pd   0.7847910401167800    0.6112217482805940    0.4254676463540700
 Pd   0.8809278905769240    0.3635690003736120    0.5906272722260180
 Pd   0.7086168295232190    0.4609044164470389    0.3639586616975030
 Pd   0.7498122763325490    0.4857855545139930    0.5511967436627570
 Pd   0.8750487111040241    0.4479164073129400    0.4362886309534170
 Pd  -0.0356507281870847    0.5933756110360130    0.3866477872455260
 Pd   0.1139270705615950    0.8136922792045540    0.5295917135565590
 Pd   0.1493003242962600    0.5935586380651540    0.6845819352031920
 Pd   0.0989928045548027    0.9307910298492610    0.3288407858499430
 Pd   0.2998815775116000    0.6736436334544539    0.5163910031833930
 Pd   0.1174842139207180    0.6443558776871770    0.4772275772268599
 Pd   0.0350859291478833    0.8812868639753260    0.6747440441413249
 Pd   0.2862839226353430    0.8633806852505239    0.5168764932735660
 Pd   0.4169449130294980    0.6552432351261590    0.2807224562512070
 Pd   0.4282434599756019    0.7924115462612340    0.6006574602668250
 Pd   0.4733003050151070    0.7016370189492049    0.4494582400876059
 Pd   0.5716473430409420    0.9992169617138179    0.3249120088825160
 Pd   0.7522959155256880    0.6533196011824390    0.6122191424400549
 Pd   0.4538056779181820    0.9147625825506279    0.4644150820740429
 Pd   0.4021111460060580    0.9832366892718419    0.6316080618743690
 Pd   0.6497758146196450    0.8971197432260940    0.4451319512562729
 Pd   0.6488108087745270    0.7159871798959701    0.3897341673076620
 Pd   0.7701997853229270    0.8336875093423939    0.5594142232647960
 Pd   1.0253979458924900    0.7020585804197509    0.6258646699058169
 Pd   0.8160404353289070    0.8063548496243570    0.3854307841368210
 Pd   0.9454930422035081    0.8907523653986360    0.5143727209461180
 Pd   0.8963443164515040    0.7130838644666210    0.5159881033599481
 Pd   0.5683384748587289    0.9115514880710349    0.6138748296639459
 Pd   1.0015855432748400    0.7755664503784070    0.3791464226074020
 Pd  -0.1022468912396380    0.0498716964258068    0.6054253652194310
 Pd  -0.0379319409895810    0.1705370075339380    0.7539885095011530
 Pd  -0.0326850286052988    0.0009373339541043    0.8028570641922130
 Pd   0.2405660074872540    0.1400403973859530    0.6616700396919880
 Pd   0.1822271566411670    0.0392339845749194    0.9685044157122550
 Pd   0.0695595167981405    0.0610849262562709    0.6486009251261300
 Pd   0.0489738463591267    0.2887675765368130    0.8555824903108349
 Pd   0.1241848644817800    0.1124146669562380    0.8096767557005369
 Pd   0.2768856523253970    0.0269286215165194    0.7986082092678218
 Pd   0.2621470182999650    0.2271086273486410    0.8224312945370020
 Pd   0.6083171277876630   -0.1133333620839500    0.9351392055290099
 Pd   0.4154312687767180    0.1604457152690240    0.5664974765833750
 Pd   0.5702772018148670    0.0480153203819194    1.0177216013336801
 Pd   0.4008179665758039    0.1289752931930760    0.7432255920600660
 Pd   0.3642984230133160    0.0932380702011537    0.9421934716810889
 Pd   0.5378080057048340    0.1220228537111430    0.8580000215487640
 Pd   0.5556471973449720    0.0820497129143739    0.6784255404989590
 Pd   0.6975108572876799    0.0607264197530295    0.8991407549606960
 Pd   0.8037208357012270    0.0637631717563294    0.7607423284023640
 Pd   0.7192568378162501    0.0085519007849260    0.6057355391488720
 Pd   0.9995063077060350    0.1365784611264680    0.9287516849976299
 Pd   0.6449903393855571   -0.0362346574285991    0.7687099229128580
 Pd   0.7486757355807530    0.3674083347880600    0.8578159023241850
 Pd   0.8199697950539548    0.2087392168116520    0.6642764831677919
 Pd  -0.0224288707127702    0.2135209947398840    0.5792311775199091
 Pd  -0.0163663890937129    0.5923425081758689    0.7642586944322319
 Pd   0.1900499724877440    0.3764154480069630    0.9040657118143580
 Pd   0.2066721437682310    0.4158688821828710    0.7219272658885649
 Pd   0.2988511892593150    0.4854280486695720    0.9982470392848600
 Pd   0.0304579570562189    0.4272201284156760    0.6863725371743289
 Pd   0.1923927412061590    0.5494508646425210    0.8528953794534590
 Pd   0.3173687828160490    0.5649711981260919    0.7268395127817250
 Pd   0.1125767916343560    0.2626362986547260    0.6907728083735769
 Pd   0.3662283558381050    0.6129670230428580    0.8988890142636739
 Pd   0.4467997858685570    0.2708769056972620    0.8276629551023840
 Pd   0.4433825815604030    0.4346813798262380    0.6778811163935240
 Pd   0.4969365196981190    0.3899594415041730    0.9456448925404020
 Pd   0.3531592777480710    0.4246090027219879    0.8353222643846840
 Pd   0.5004834466430360    0.5402041437560529    0.8042201812800380
 Pd   0.5830899163344390    0.3752317933791440    0.7884063791965280
 Pd   0.5259428761918470    0.2612131140372470    0.6608942054832079
 Pd   0.6567426819677410    0.5115410528139510    0.9010906626107229
 Pd   0.8992506683373340    0.3436949590159590    0.7706007325077580
 Pd   0.8396720726093850    0.5068323035756190    0.7040862542380449
 Pd   0.9105691566367911    0.3621881029691429    0.9538971598114030
 Pd   0.7237721783378680    0.3513200010690200    0.6772970445364629
 Pd   0.8280930837328319    0.6771101252891019    1.0843827376303301
 Pd   0.9550778424103260    0.5455175005941491    0.5669885006215440
 Pd   0.0920472759765635    0.7408865578700740    0.7817742335676149
 Pd  -0.0396493768169518    0.8307366349687408    0.8547544953126880
 Pd   0.2551265667759380    0.7350063181723859    0.8397910930143240
 Pd   0.2083801031369090    0.9440074512411499    0.6558632780195091
 Pd   0.2948013396702860    0.7963541447941839    1.0543551527435300
 Pd   0.2304951890002120    0.7536853621301151    0.6592857870091470
 Pd   0.0186314360111804    0.9530585122052169    0.9730799481031310
 Pd   0.1320029265382430    0.9218917144574740    0.8221170572395939
 Pd   0.4148442486419700    0.7008774754730689    0.7507486260646160
 Pd   0.4201084320328130    0.7857328521966840    0.9069735724422089
 Pd   0.5845088884551160    0.6696667875234149    0.7006803162752319
 Pd   0.6084463578520200    0.7557466958582511    0.5549446076104890
 Pd   0.5756083551814510    0.6896771560759079    0.8790604289941350
 Pd   0.3423182891871830    0.8645443818429389    0.7487179456078190
 Pd   0.4566534445859100    0.9698350547561538    0.8398257277845479
 Pd   0.5322412563475760    0.8290549655501490    0.7670037517666809
 Pd   0.6553209352555330    0.5139046125257040    0.7053932383190699
 Pd   0.7300990489794230    0.7574271541715150    0.9269337445097861
 Pd   0.8776277152788709    0.7290545582301560    0.7234203598260169
 Pd   0.7083106563859699    0.7996664230937078    0.7300388576884730
 Pd   0.8872561258433080    0.6830900984288479    0.9127015586309170
 Pd   0.7448914827677280    0.6342069288117350    0.8012613914920030
 Pd   0.7927860752452340    0.9073959231515780    0.8550505826693760
 Pd   0.8601760175913830    0.9015626669900090    0.6914915202554191
%ENDBLOCK POSITIONS_FRAC

%BLOCK KPOINTS_LIST
   0.2500000000000000    0.2500000000000000    0.2500000000000000       0.250000000000000
   0.2500000000000000    0.2500000000000000   -0.2500000000000000       0.250000000000000
   0.2500000000000000   -0.2500000000000000    0.2500000000000000       0.250000000000000
   0.2500000000000000   -0.2500000000000000   -0.2500000000000000       0.250000000000000
%ENDBLOCK KPOINTS_LIST

FIX_ALL_CELL : true

FIX_COM : false
%BLOCK IONIC_CONSTRAINTS
%ENDBLOCK IONIC_CONSTRAINTS

%BLOCK EXTERNAL_EFIELD
    0.0000000000     0.0000000000     0.0000000000 
%ENDBLOCK EXTERNAL_EFIELD

%BLOCK EXTERNAL_PRESSURE
    0.0000000000    0.0000000000    0.0000000000
                    0.0000000000    0.0000000000
                                    0.0000000000
%ENDBLOCK EXTERNAL_PRESSURE

%BLOCK SPECIES_MASS
      Pd    106.4000015259
%ENDBLOCK SPECIES_MASS

%BLOCK SPECIES_POT
      Pd  Pd_00PBE.usp
%ENDBLOCK SPECIES_POT

%BLOCK SPECIES_LCAO_STATES
      Pd         3
%ENDBLOCK SPECIES_LCAO_STATES

