%BLOCK LATTICE_ABC
 15.0 15.0 20.0
 90.0 90.0 120.0
%ENDBLOCK LATTICE_ABC

%BLOCK POSITIONS_ABS
 C   1.1 2.2 3.3
%ENDBLOCK POSITIONS_ABS
