%BLOCK LATTICE_ABC
15.0 15.0 15.0
90.0 90.0 90.0
%ENDBLOCK LATTICE_ABC
%BLOCK POSITIONS_FRAC
H 0.1 0.1 0.1
O 1.2 0.2 -0.1
%ENDBLOCK POSITIONS_FRAC
