%BLOCK LATTICE_CART
10.0 0.0 0.0
0.0 11.0 0.0
0.0 0.0 12.0
%ENDBLOCK LATTICE_CART

%BLOCK POSITIONS_ABS
C 1.0 2.0 3.0
Si 4.5 5.5 6.5
%ENDBLOCK POSITIONS_ABS
