!Title
!Onetep calculation from Materials Studio for aPdH


TASK SINGLEPOINT
CUTOFF_ENERGY 750.0000000000   eV
KERNEL_CUTOFF 47.2431578250    
CHARGE 0        
NGWF_THRESHOLD_ORIG 0.0000183747     
ELEC_ENERGY_TOL 0.0000020000     eV
MAXIT_NGWF_CG 100      
MINIT_LNV 8        
MAXIT_LNV 8        
MAXIT_PEN 3        
PEN_PARAM 4        
COMMS_GROUP_SIZE 1        
MAXIT_HOTELLING 100      
XC_FUNCTIONAL PBE
SPINPOLARIZED TRUE
SPIN 101      
CONSTANT_EFIELD 0.0000000000     0.0000000000     0.0000000000     
OUTPUT_DETAIL BRIEF
WRITE_FORCES FALSE
DO_PROPERTIES TRUE
WRITE_DENSITY_PLOT TRUE
HOMO_PLOT -1       
LUMO_PLOT -1       
NUM_EIGENVALUES 6        
POPN_CALCULATE FALSE
DOS_SMEAR 0.1000000000     eV
EDFT TRUE
EDFT_SMEARING_WIDTH 0.1000000000     eV
EIGENSOLVER_ORFAC -1       
EIGENSOLVER_ABSTOL -1       

%block lattice_cart
25.094809546115      0.000000000000       0.000000000000       
0.000000000000       25.094809546115      0.000000000000       
0.000000000000       0.000000000000       25.094809546115      
%endblock lattice_cart

%block positions_abs
Pd1 23.84276386388483      23.25763107757782      24.96333296983389      
H1 1.39144035349183       6.56872105200729       2.73201346038148       
Pd1 4.50751803295151       1.27728031073626       1.68984186906592       
H1 3.35123479099181       3.85686667981706       24.19575490312777      
H1 8.28799538005228       1.84419569696944       0.43925882177413       
Pd1 8.12862523396664       4.24403648267696       3.14121106776848       
H1 12.94677869111861      2.95865831863394       3.11085750516184       
Pd1 11.91316080233964      2.53629938541740       25.07299264260313      
Pd1 14.40601542328488      23.07361440471177      0.76842082228075       
Pd1 12.57699997715628      5.91160101641504       4.66152816499214       
Pd1 16.14378373174688      22.57333162054154      5.80427132327740       
H1 15.66077095415043      1.25764919506932       25.03260706913167      
Pd1 18.88619978399233      24.96392661790648      24.37123039856323      
Pd1 16.38691205657688      2.30320523518885       3.26102631682670       
H1 22.13136545590892      1.37370362987216       0.15618140867699       
Pd1 19.93308498957029      5.22477971016543       0.28554397269800       
Pd1 0.12043229950147       3.51553576026170       0.92211933656263       
Pd1 1.69878973827578       10.04431927022962      4.12420936991696       
Pd1 2.74147946609019       4.73244418890178       5.48518911914486       
H1 1.64889668149276       10.73945826920687      0.39718315645682       
H1 6.98819744016967       7.03120503913604       23.38758870129698      
H1 8.55000269246910       11.39049913461870      2.25462686667096       
H1 9.12153814962245       7.39858097365029       4.17009711020560       
Pd1 9.46012863532186       8.44502172315833       0.22891202905060       
Pd1 14.97958198851507      7.07492861760788       0.39634989864664       
H1 13.27377260484687      9.00988850055930       2.72988451739397       
Pd1 17.87085070340180      7.08276142735060       4.88238833856418       
Pd1 15.67170030911388      11.62776816081453      2.69570851844659       
Pd1 19.12604666899969      10.37133532777081      23.39295058428131      
H1 23.43318178978972      9.55838552566362       4.85698951929747       
Pd1 22.89076771998762      6.09952603446972       4.46594177883504       
Pd1 20.94554461626725      10.59027839478532      2.90815660557196       
Pd1 24.74213818998250      13.56276323613907      0.66268814629884       
H1 24.81264625977569      15.90646376041939      3.06925951730304       
Pd1 2.98923749755483       15.67135826298206      3.99739840696034       
Pd1 2.88207986588771       16.59167384822002      23.50893950605233      
Pd1 5.70988358331077       12.50650670958931      0.77849953395193       
Pd1 7.06590048794206       17.83838852559359      1.74299279133584       
Pd1 10.83569284058890      13.49385267672021      0.72708465978206       
H1 9.40216864115456       16.39751766929756      24.88123075825761      
H1 11.89113573413625      13.50669149618798      22.44264066584989      
H1 9.41796842364930       20.22742092149842      1.50321584320961       
H1 16.76380965490895      14.84922537743081      2.41691141481692       
H1 18.87600585192838      16.36227469874854      23.74095266479971      
Pd1 20.01948533829205      15.60573549664570      1.66120466361114       
H1 20.11086816775657      13.45803231730378      4.52350073150473       
Pd1 23.29804051640289      14.28042687514728      5.62935942170723       
Pd1 22.96590852753643      18.09681035067266      23.30191126359680      
H1 0.78014914219097       19.33643270377982      24.72842640199579      
H1 5.44668014972688       23.07023185130328      2.99628847649926       
Pd1 4.32453883683883       20.44955594601520      5.49602960405926       
Pd1 3.57782460907569       21.49293488158239      0.40345994287669       
H1 5.44986109957338       18.80532839084798      23.99304301288965      
Pd1 8.70166453909933       23.48077938279226      0.87577550326944       
Pd1 11.47734286226637      19.26134262971330      23.75635602806741      
H1 9.69400896460896       22.23785178498007      22.98054348273185      
H1 13.47169090193587      18.03284529950122      1.54981548686407       
H1 9.82359979811993       22.68591911053820      5.67011043801202       
Pd1 11.67191506632637      20.25644049417536      3.92467859204179       
H1 20.66421253927500      21.85806723097264      24.18039189496548      
Pd1 17.82796628246571      19.68128789109930      23.20873679973273      
Pd1 19.80197411690490      21.03273333801984      2.57131355546336       
H1 21.09388436939266      18.20868922353756      3.92455096559579       
Pd1 24.60031555111056      19.29118856269941      3.11203784333475       
Pd1 21.39964891252751      1.17605408399023       3.62630598172138       
H1 24.72191170092285      2.64093963518420       4.63382672177194       
H1 4.70881871148390       22.81039768446216      8.10767966625036       
H1 5.47883931936943       2.81106283232720       4.81041187772646       
Pd1 6.96412409383616       24.73675606236017      5.78658768018011       
Pd1 3.29349217393203       0.89762904479486       9.04406744936945       
Pd1 7.94001735763958       24.47282457769912      10.93785855988925      
H1 6.45916223015191       2.08817207427692       9.19747750448854       
Pd1 11.88937897463580      0.34296033228928       4.98429733665518       
H1 10.73782633746777      1.37051219771379       10.20775638135115      
H1 14.88503976720183      0.57665213681022       7.16948317505450       
Pd1 14.46102759369227      3.85663518645398       8.87947792834019       
Pd1 18.67379537978045      1.30218123625239       8.14784899456038       
H1 20.85009092515120      2.84281782730592       10.31325220281642      
Pd1 22.04907362352521      22.41554380843819      7.02434921411771       
H1 19.63743393851942      4.19942523361548       3.60812369087273       
H1 22.40505186842443      6.03917545525825       7.84556183319011       
H1 0.45844482752585       10.54471057760255      10.94158838074337      
Pd1 2.94359595081025       7.90298253537249       10.04630467905502      
H1 4.89025191494101       9.92600040473181       2.80311811110251       
Pd1 6.79257083685719       7.58905880597368       6.78579554819484       
H1 7.65575874087490       6.31917151842394       9.81851654394210       
Pd1 9.44029245033488       3.60091644856977       8.11719909074249       
Pd1 10.85322521109481      10.52102450611045      5.00721662712934       
H1 15.71819725937131      4.72439246003488       5.84454674460206       
H1 11.35496716633490      9.07646338093203       8.11453901560828       
H1 16.67246076492901      4.86924773925284       11.32706773270942      
H1 16.41149073651349      10.21951972733858      5.75351847314731       
Pd1 19.45960435432405      6.18670347644593       9.78209562383420       
Pd1 18.88106355511675      11.94547393743354      7.40894336347669       
H1 21.10132904635823      9.03540771617915       10.82414052600802      
Pd1 23.34929112233355      9.41773997652504       8.22335470070134       
H1 22.67894817851068      16.26858770142412      8.53381555009526       
Pd1 2.00562736438719       12.95815033274616      8.62754297433467       
H1 3.62653518284644       9.96645712072976       7.23691333799758       
H1 6.21374063929312       17.15097767953639      5.10404921185175       
Pd1 6.14871886828528       12.28441011454683      5.68144107824775       
H1 8.37410868879573       13.63304249409082      8.05740034373977       
H1 10.23043715812898      11.58043977255334      11.73604941429871      
Pd1 9.75977958124230       15.76330276257050      5.41892737209138       
H1 12.65791337513713      13.40603036563969      4.02638562563311       
H1 13.64277754769363      15.80675474579718      11.09636953623751      
Pd1 14.07420546645890      13.90562100920189      7.22582063320190       
H1 12.90489511648103      17.22622071183011      6.18222407486277       
H1 17.44252309041264      15.38606690511812      7.36421315803353       
Pd1 17.26055708995995      15.63206151957652      10.81448512814876      
Pd1 22.46269137634739      13.81223238454450      10.74686993832292      
Pd1 19.95667842856827      17.92590929304635      7.19029428118470       
H1 0.95482535898508       20.85349799397913      5.91025545002194       
H1 23.24620832641242      22.77226120655665      3.32417381003416       
Pd1 0.32891654962500       18.32331752535568      8.22861751667343       
Pd1 1.07488161050917       24.38211100047754      4.62868721422119       
Pd1 5.53092134440658       16.50014749404202      8.52314026505517       
Pd1 4.34462240778716       20.75342225150973      10.98041389443658      
H1 11.22863191930088      21.18132668485754      10.38694669699325      
Pd1 8.80662852921918       20.32554571997090      7.99756988712954       
Pd1 13.64716903164980      18.90081913193813      9.13182590659784       
Pd1 13.12089878791497      24.07775679032571      10.00901392548417      
H1 15.39974834221051      21.69095613285063      8.97141506933436       
H1 16.39637608752161      20.84542349957935      2.64960517739319       
Pd1 15.91096686861913      17.64081231621044      4.22739565669961       
Pd1 18.20821479829805      22.05463775635793      10.72001975066631      
H1 18.48678363999666      18.69713756265755      10.64453477482299      
H1 19.26622581667667      24.10409353934308      5.56677445089027       
H1 24.92074386587734      24.49759451494613      8.15212292809124       
H1 22.81552413400407      5.07061194471467       13.69541915848657      
H1 0.52844886573737       0.71635534557693       13.21233588465002      
H1 1.89179936166262       4.54261849168038       8.94850301840170       
H1 6.53755711050692       22.25473936008101      13.54155169889286      
Pd1 3.74325914768197       24.87065399031937      14.08936230925989      
Pd1 9.57055195405307       24.13802904416094      15.69990162462813      
H1 8.26793174193710       2.03373771792536       14.35790716009215      
H1 11.86512942455167      20.23353632907061      15.28637837890861      
H1 13.45714862836746      0.29692740810747       13.47709820827159      
Pd1 14.57257967240642      22.26812388148537      14.63758432249387      
Pd1 16.56654891454674      1.83905673932907       13.19765712181923      
H1 21.67128560505171      21.48263354314400      10.39943331871945      
H1 16.71894752200270      3.79346683822693       16.30008592606061      
Pd1 21.72816133473186      1.56745289969681       13.38560083304660      
Pd1 23.64075870294187      2.69093444994974       8.26120476034851       
Pd1 1.02074996563623       4.00837069839534       12.50586263228032      
Pd1 0.51305607548839       9.65301737102672       18.00739201643242      
H1 3.41348985149932       10.04852033969330      16.29015005880144      
H1 3.76664445600329       6.38093011192423       13.24994660668019      
Pd1 6.27647221318772       4.20299577699759       12.23128779328465      
Pd1 6.23993798697984       8.45652729913832       14.93540259671820      
Pd1 11.40690506194613      3.22255494729316       13.07176223581821      
Pd1 10.32371916442780      7.96452008758592       11.16406713891758      
Pd1 14.71519187861620      8.86314722345834       8.43618678210322       
Pd1 11.11161412659011      7.81490075164110       16.31952241692486      
Pd1 14.95173865708438      7.06255570638312       13.27023754863522      
H1 16.50035114417759      11.51858333091430      10.03917645754756      
Pd1 19.47391893287927      6.02799370844846       15.07783574569063      
Pd1 19.71375471385479      10.66572720126698      17.85598674550262      
Pd1 23.89057184767672      5.01624998188844       16.96556541166284      
Pd1 23.60525255587841      8.68732809641068       13.30556101963544      
H1 21.51250519152577      10.81060376825187      14.88435072952441      
Pd1 1.11057090984689       16.81933447593969      13.01306686599458      
Pd1 2.50654665562280       11.89937447031906      13.60760943676277      
H1 3.44563449292599       15.03055496719419      11.07719790185438      
Pd1 6.78222317744740       11.47720488012019      10.60215777941699      
H1 6.32457564246054       12.11260480776196      14.14544562378464      
Pd1 9.69892566208902       12.59407130168498      15.18923896310420      
Pd1 10.20938543314736      15.34899182223194      10.54354719594385      
Pd1 13.73424416384340      12.02820437529449      12.21958103137221      
Pd1 12.87689304992977      15.66917578026864      19.97488191269751      
Pd1 14.71085581277388      11.72497862087965      17.25469109224600      
H1 15.11560969850027      13.97268234481182      14.81492687886494      
Pd1 18.67745663758447      10.71783857186406      12.65889412419633      
H1 20.94029578804932      14.35394532431052      18.49151494209734      
Pd1 23.28618227969837      13.64419409598648      15.74391767037224      
H1 21.11565437178697      15.30658705162860      13.55266672702546      
H1 0.98186021258674       19.85131451944826      11.32529524501687      
H1 22.89142852137447      23.49138638257206      15.60418691695480      
H1 3.48561866396210       17.00938154137059      15.57122634839800      
Pd1 24.60433553188112      23.02046681402933      11.29853025567110      
Pd1 5.97090986887865       15.79234538234956      13.48947019919964      
Pd1 4.88125454246063       20.22519753943841      16.25981404230360      
Pd1 8.58523412245954       17.07856816145790      17.49868053512119      
Pd1 9.29110111094378       19.84040055630562      13.05951732331552      
Pd1 13.33495315185501      16.92616879244222      14.63733048689663      
H1 9.71243012442247       16.24933338017648      14.07664916226110      
Pd1 16.66507248117610      19.18550318467738      18.23567475906188      
H1 18.96649678537524      24.49361987815845      13.17301561982107      
H1 16.53095173747705      18.18085462075271      15.04856113177102      
H1 18.42989816499793      23.40565988190761      18.72289784499397      
Pd1 18.28868956434549      15.16084471409232      15.55357582842353      
Pd1 21.44924233619608      18.55666377452303      12.61747851382398      
Pd1 0.10817636044575       0.23620290875045       17.76889740067740      
Pd1 1.61752731162437       5.67675045061624       21.36614218283062      
Pd1 2.44970067212456       0.65997218817809       22.40998404654245      
H1 2.45211872434070       2.57683192857341       19.47277030242416      
Pd1 5.57765086517106       24.84395875266151      18.78587646847865      
Pd1 6.87886232411524       3.50463740058924       22.79199923537946      
Pd1 10.35113776475183      25.02510052252663      21.00904665236665      
Pd1 8.55573972581083       3.76611140956382       17.45471034736553      
H1 9.50511795814732       3.30935908328487       20.66868213317859      
Pd1 16.17594673564411      3.47988235060611       22.23099044007117      
Pd1 15.56100886845446      23.61302413092968      20.67275447637558      
Pd1 13.66019756830104      2.23035338320309       17.53855633602245      
Pd1 18.97812657117605      1.78793488612129       18.05188842493614      
H1 19.39139457345220      3.56344420001466       21.07876449152809      
Pd1 22.61048195799870      2.23523733739533       21.79018996445310      
H1 22.32181815298261      2.25576406806132       18.04684142137815      
H1 23.34066896257154      5.53570892444657       23.09132211914280      
Pd1 24.09005712283196      8.51433620401771       24.66646089480260      
Pd1 4.30662213379538       7.08174633251567       0.68081965453221       
H1 2.95974904598510       7.20630455273453       18.68630771312285      
Pd1 3.73595625688167       4.26877187383725       16.83052137981263      
H1 6.05211732339162       11.15124316513971      21.00956622127807      
H1 11.73811768195377      5.92937536070614       24.72209005518198      
Pd1 6.26420825980272       7.73440272117302       20.04401686199823      
H1 12.96188831532821      5.59691018663456       18.00101443390074      
Pd1 11.52092945258805      6.14230814751296       21.21353962855205      
H1 14.84120513140431      7.41511912323814       21.93726890730027      
H1 17.18267038346667      8.88283529736609       15.61647487931262      
Pd1 16.04053649751116      7.03511593734492       18.67830090494015      
H1 18.36839460140195      8.30235777057292       0.99841377856183       
Pd1 21.05416357140251      6.76684764039966       20.53816099307290      
H1 22.57455674522806      9.80571282614057       19.85014681409573      
Pd1 23.17844194525345      13.22190029596678      21.00191748599606      
H1 1.57990369788129       14.17936516041516      21.21519950367415      
Pd1 2.78644681139865       11.04805365826339      22.22693208840782      
Pd1 1.69923178305492       16.31334485814396      18.39877343909803      
Pd1 5.23499808017004       12.72012826573242      18.00670605333972      
Pd1 7.60780753661547       15.48149332181431      22.12836525460480      
Pd1 9.71984154409466       11.22353762534190      20.60171771407234      
H1 8.44996019028554       13.81316008142718      18.58933589714516      
H1 11.49293693482388      10.85749694876371      17.72901027464633      
Pd1 15.07054593179642      15.70584628975876      24.65844759352027      
Pd1 14.30543240835319      10.95610378051387      22.38823119908361      
H1 15.61181286024775      17.30657368879615      21.07869577729990      
H1 17.15274007231098      11.36923135155851      20.40253120842663      
Pd1 18.14532020716306      14.77223879293386      20.73855092367791      
H1 22.25464928816602      11.68467270693120      24.18322286560910      
Pd1 21.75783929561516      17.85254372841102      18.19778947491625      
Pd1 24.89596272066356      20.76750654990615      15.78247254502182      
Pd1 1.47341182246342       20.93927542465745      20.67838981598549      
Pd1 6.90134630668457       20.58067902064336      21.29999717173041      
H1 2.63029035088842       22.92526302787981      16.85109944678364      
H1 4.00660037821890       18.88234989370773      19.42895580543995      
H1 4.33693395612723       22.86452954854336      22.18528296077552      
H1 9.94173543008527       18.05337582473764      20.60934286934942      
H1 8.42890822341892       22.83786661953627      18.76266510757472      
Pd1 11.78862062711732      20.66387746623327      18.73565694068806      
H1 13.57713327627183      1.49921805538492       21.03731099214318      
H1 14.47531832957060      21.16501592414720      22.98137998520210      
H1 13.65441618686222      23.55623058733664      17.72669822851746      
H1 20.47612962135878      19.10413485965313      20.95320934808250      
Pd1 21.37198860109023      22.47386125189650      20.41862966972405      
H1 24.56822428122415      23.97537718613208      21.27858979836692      
Pd1 19.76042153538995      22.26843518365980      15.63272194301811      
%endblock positions_abs


%block species
Pd1 Pd 46 13 8.50376840850000
H1 H 1 -1 7.93685051460000
%endblock species

%block species_atomic_set
Pd1 SOLVE
H1 SOLVE
%endblock species_atomic_set

%block species_pot
Pd1 Pd_00PBE_OP.recpot
H1 H_00PBE_OP.recpot
%endblock species_pot


