!BIOSYM archive 3
PBC=ON

!DATE     Mar 20 15:22:38 2026
PBC   17.3954   17.3954   17.3954   90.0000   90.0000   90.0000
Ti1     -0.142560015   -0.115983101    0.150179374 XXXX 1      xx      Ti  0.000
Hf2      1.700993341    1.741782593    1.699676427 XXXX 1      xx      Hf  0.000
Nb3      3.623445744    0.023174961   -0.035767941 XXXX 1      xx      Nb  0.000
Zr4      5.229157891    1.773035254    1.777621184 XXXX 1      xx      Zr  0.000
Zr5      6.894018691   -0.106040233   -0.044212347 XXXX 1      xx      Zr  0.000
Zr6      8.648110462    1.787575905    1.683411459 XXXX 1      xx      Zr  0.000
Zr7     10.339586812   -0.166827276    0.040360938 XXXX 1      xx      Zr  0.000
Zr8     12.251200429    1.691171460    1.587388151 XXXX 1      xx      Zr  0.000
Nb9     14.050364377   -0.119627071    0.114835228 XXXX 1      xx      Nb  0.000
Ti10    15.666447706    1.788255626    1.621335577 XXXX 1      xx      Ti  0.000
Ti11    -0.136097499    3.513767764   -0.020333679 XXXX 1      xx      Ti  0.000
Zr12     1.688440657    5.052660800    1.686663909 XXXX 1      xx      Zr  0.000
Zr13     3.586936756    3.382947233   -0.139950455 XXXX 1      xx      Zr  0.000
Zr14     5.270534812    5.194517376    1.626219641 XXXX 1      xx      Zr  0.000
Ti15     6.851575565    3.352457801   -0.134812154 XXXX 1      xx      Ti  0.000
Hf16     8.691713142    5.181262557    1.679878879 XXXX 1      xx      Hf  0.000
Ti17    10.481381177    3.528716636   -0.006191224 XXXX 1      xx      Ti  0.000
Nb18    12.115473665    5.158274588    1.721973674 XXXX 1      xx      Nb  0.000
Nb19    14.005584298    3.564266030    0.065944774 XXXX 1      xx      Nb  0.000
Ti20    15.759604418    5.068668528    1.720776331 XXXX 1      xx      Ti  0.000
Nb21    -0.143476644    6.769031352    0.020753052 XXXX 1      xx      Nb  0.000
Zr22     1.709898312    8.668931340    1.670504738 XXXX 1      xx      Zr  0.000
Nb23     3.473339012    6.872404655   -0.016371593 XXXX 1      xx      Nb  0.000
Zr24     5.286866130    8.574793719    1.634447918 XXXX 1      xx      Zr  0.000
Nb25     7.125312800    7.020572216   -0.084821457 XXXX 1      xx      Nb  0.000
Zr26     8.744205864    8.692823592    1.820069124 XXXX 1      xx      Zr  0.000
Zr27    10.420023184    6.906366334   -0.079509857 XXXX 1      xx      Zr  0.000
Zr28    12.077410977    8.735151373    1.736917280 XXXX 1      xx      Zr  0.000
Zr29    13.931201543    6.800417695    0.074452733 XXXX 1      xx      Zr  0.000
Zr30    15.663778503    8.783880950    1.703719780 XXXX 1      xx      Zr  0.000
Zr31     0.054827060   10.628963928   -0.064296418 XXXX 1      xx      Zr  0.000
Zr32     1.816886347   12.310510065    1.763052346 XXXX 1      xx      Zr  0.000
Zr33     3.551354195   10.468282390    0.060884565 XXXX 1      xx      Zr  0.000
Ti34     5.230202371   12.350250504    1.685203771 XXXX 1      xx      Ti  0.000
Zr35     7.082591587   10.566659318   -0.055730624 XXXX 1      xx      Zr  0.000
Ti36     8.690202500   12.262096308    1.934213290 XXXX 1      xx      Ti  0.000
Zr37    10.336405072   10.597515392   -0.028977789 XXXX 1      xx      Zr  0.000
Nb38    12.055989475   12.165332728    1.794290212 XXXX 1      xx      Nb  0.000
Ti39    13.769394744   10.655556720   -0.028748916 XXXX 1      xx      Ti  0.000
Zr40    15.645874004   12.158531710    1.767061749 XXXX 1      xx      Zr  0.000
Nb41    -0.072779675   13.985798423    0.052367281 XXXX 1      xx      Nb  0.000
Hf42     1.844659375   15.716875064    1.660956033 XXXX 1      xx      Hf  0.000
Nb43     3.652987684   14.042422111    0.096614166 XXXX 1      xx      Nb  0.000
Nb44     5.195664107   15.624644168    1.730583632 XXXX 1      xx      Nb  0.000
Zr45     7.038106306   13.914365453   -0.073403273 XXXX 1      xx      Zr  0.000
Zr46     8.547744556   15.602282494    1.963162027 XXXX 1      xx      Zr  0.000
Zr47    10.364664276   13.904597274    0.006988410 XXXX 1      xx      Zr  0.000
Ti48    12.271086611   15.645909755    1.712857679 XXXX 1      xx      Ti  0.000
Zr49    13.804586174   13.772773813    0.018757473 XXXX 1      xx      Zr  0.000
Nb50    15.581315265   15.588050220    1.657835312 XXXX 1      xx      Nb  0.000
Zr51    -0.064343785    0.016638756    3.475995445 XXXX 1      xx      Zr  0.000
Ti52     1.648926099    1.917705196    5.158826867 XXXX 1      xx      Ti  0.000
Zr53     3.503578160    0.085158010    3.554723517 XXXX 1      xx      Zr  0.000
Ti54     5.281633055    1.732458238    5.232845085 XXXX 1      xx      Ti  0.000
Ti55     6.806497068   -0.008473224    3.434047094 XXXX 1      xx      Ti  0.000
Zr56     8.634402906    1.540422980    5.267894692 XXXX 1      xx      Zr  0.000
Hf57    10.535284331   -0.082664940    3.513802186 XXXX 1      xx      Hf  0.000
Zr58    12.270798225    1.739967604    5.364978821 XXXX 1      xx      Zr  0.000
Zr59    14.012749301    0.008921776    3.454359787 XXXX 1      xx      Zr  0.000
Nb60    15.689205491    1.832353584    5.273485761 XXXX 1      xx      Nb  0.000
Nb61    -0.120339269    3.359283405    3.471201179 XXXX 1      xx      Nb  0.000
Zr62     1.715546954    5.040853717    5.319683372 XXXX 1      xx      Zr  0.000
Nb63     3.462226479    3.381495799    3.541281508 XXXX 1      xx      Nb  0.000
Zr64     5.012257306    5.154020883    5.329464598 XXXX 1      xx      Zr  0.000
Zr65     7.000896659    3.534110817    3.629048424 XXXX 1      xx      Zr  0.000
Nb66     8.851389212    5.306796080    5.137841708 XXXX 1      xx      Nb  0.000
Zr67    10.494954627    3.459883604    3.494725222 XXXX 1      xx      Zr  0.000
Ti68    12.215657931    5.194991733    5.153454676 XXXX 1      xx      Ti  0.000
Hf69    13.964102025    3.461743498    3.422751339 XXXX 1      xx      Hf  0.000
Zr70    15.711481459    5.137329941    5.252663078 XXXX 1      xx      Zr  0.000
Zr71     0.023755839    6.906020856    3.460749893 XXXX 1      xx      Zr  0.000
Zr72     1.819354539    8.811284551    5.222703081 XXXX 1      xx      Zr  0.000
Zr73     3.403622796    6.872214630    3.443127283 XXXX 1      xx      Zr  0.000
Zr74     5.130055377    8.756132300    5.245546908 XXXX 1      xx      Zr  0.000
Zr75     6.974819422    6.869822476    3.589670504 XXXX 1      xx      Zr  0.000
Zr76     8.746176030    8.826798826    5.176808812 XXXX 1      xx      Zr  0.000
Nb77    10.511157955    6.869257417    3.514204069 XXXX 1      xx      Nb  0.000
Nb78    12.061236574    8.696688424    5.115869677 XXXX 1      xx      Nb  0.000
Zr79    13.875364495    6.875516321    3.428038646 XXXX 1      xx      Zr  0.000
Zr80    15.724704364    8.784571817    5.128311477 XXXX 1      xx      Zr  0.000
Nb81     0.112730530   10.466117909    3.437106820 XXXX 1      xx      Nb  0.000
Hf82     1.904302181   12.187067669    5.198672048 XXXX 1      xx      Hf  0.000
Ti83     3.607403570   10.531605715    3.364489980 XXXX 1      xx      Ti  0.000
Ti84     5.122605184   12.198863341    5.274387195 XXXX 1      xx      Ti  0.000
Zr85     6.820687719   10.598066445    3.443036435 XXXX 1      xx      Zr  0.000
Ti86     8.697583884   12.052171705    5.206221339 XXXX 1      xx      Ti  0.000
Nb87    10.477545900   10.559856237    3.490109545 XXXX 1      xx      Nb  0.000
Nb88    12.023460908   12.116012735    5.181083454 XXXX 1      xx      Nb  0.000
Hf89    13.761131332   10.485753265    3.498716694 XXXX 1      xx      Hf  0.000
Zr90    15.714827136   12.174213518    5.143687126 XXXX 1      xx      Zr  0.000
Zr91    -0.031469856   14.020891275    3.387562304 XXXX 1      xx      Zr  0.000
Zr92     1.858405906   15.493469782    5.182198142 XXXX 1      xx      Zr  0.000
Ti93     3.681403912   13.921651413    3.393585992 XXXX 1      xx      Ti  0.000
Zr94     5.273562132   15.649359647    5.207329439 XXXX 1      xx      Zr  0.000
Nb95     6.852440347   13.824615789    3.518258578 XXXX 1      xx      Nb  0.000
Ti96     8.524554533   15.734810569    5.153096331 XXXX 1      xx      Ti  0.000
Zr97    10.483974635   13.951064267    3.573821707 XXXX 1      xx      Zr  0.000
Nb98    12.319615936   15.668098049    5.172841062 XXXX 1      xx      Nb  0.000
Ti99    13.761419484   13.864922513    3.438166981 XXXX 1      xx      Ti  0.000
Zr100   15.564392060   15.518720425    5.269497218 XXXX 1      xx      Zr  0.000
Zr101    0.061713726    0.007773422    6.858581815 XXXX 1      xx      Zr  0.000
Zr102    1.699107675    1.861649812    8.734496577 XXXX 1      xx      Zr  0.000
Hf103    3.491293552    0.055982706    6.966833189 XXXX 1      xx      Hf  0.000
Nb104    5.215161911    1.787234392    8.691138939 XXXX 1      xx      Nb  0.000
Nb105    6.810154956    0.028293216    7.004481010 XXXX 1      xx      Nb  0.000
Hf106    8.778003955    1.608723040    8.648888851 XXXX 1      xx      Hf  0.000
Ti107   10.498975478   -0.167367469    6.688581809 XXXX 1      xx      Ti  0.000
Hf108   12.184825159    1.735945084    8.671767204 XXXX 1      xx      Hf  0.000
Ti109   13.984819508    0.006810018    6.789009526 XXXX 1      xx      Ti  0.000
Zr110   15.565800643    1.713104950    8.703545998 XXXX 1      xx      Zr  0.000
Nb111   -0.116033263    3.405148568    6.975990161 XXXX 1      xx      Nb  0.000
Zr112    1.779192241    5.119514673    8.724403940 XXXX 1      xx      Zr  0.000
Ti113    3.520707733    3.200202349    6.931242866 XXXX 1      xx      Ti  0.000
Zr114    5.041622648    5.153319691    8.657454262 XXXX 1      xx      Zr  0.000
Zr115    7.011049849    3.499907990    6.965560877 XXXX 1      xx      Zr  0.000
Zr116    8.769818240    5.408547855    8.809987185 XXXX 1      xx      Zr  0.000
Zr117   10.436542049    3.612905951    6.942615105 XXXX 1      xx      Zr  0.000
Nb118   12.204458581    5.195055821    8.756603637 XXXX 1      xx      Nb  0.000
Ti119   13.922004426    3.586349177    7.010137469 XXXX 1      xx      Ti  0.000
Nb120   15.629698346    5.032371186    8.729810864 XXXX 1      xx      Nb  0.000
Zr121   -0.074184932    6.984949692    7.089875588 XXXX 1      xx      Zr  0.000
Zr122    1.921831360    8.651807572    8.798197410 XXXX 1      xx      Zr  0.000
Nb123    3.477718423    7.031110024    7.015099127 XXXX 1      xx      Nb  0.000
Nb124    5.190397866    8.679930347    8.631907451 XXXX 1      xx      Nb  0.000
Zr125    6.976290536    6.956404571    6.942307244 XXXX 1      xx      Zr  0.000
Zr126    8.792364958    8.766323788    8.697464153 XXXX 1      xx      Zr  0.000
Hf127   10.531175145    6.939300155    6.873441023 XXXX 1      xx      Hf  0.000
Hf128   12.107477242    8.752941031    8.759020758 XXXX 1      xx      Hf  0.000
Zr129   13.855830306    6.908801640    6.984555364 XXXX 1      xx      Zr  0.000
Zr130   15.472461803    8.894209625    8.832537455 XXXX 1      xx      Zr  0.000
Zr131    0.043199736   10.481716364    7.060295929 XXXX 1      xx      Zr  0.000
Zr132    2.037664184   12.147235673    8.699504292 XXXX 1      xx      Zr  0.000
Ti133    3.622183905   10.379885909    7.013117653 XXXX 1      xx      Ti  0.000
Zr134    5.239850325   12.198534495    8.610434552 XXXX 1      xx      Zr  0.000
Nb135    6.885472898   10.427166436    6.925500481 XXXX 1      xx      Nb  0.000
Hf136    8.758029684   12.051627954    8.635788379 XXXX 1      xx      Hf  0.000
Nb137   10.513552684   10.443242971    6.857233145 XXXX 1      xx      Nb  0.000
Ti138   11.995186485   11.977440095    8.757922727 XXXX 1      xx      Ti  0.000
Zr139   13.756682148   10.471254014    6.836589847 XXXX 1      xx      Zr  0.000
Zr140   15.488221899   12.156737111    8.825948649 XXXX 1      xx      Zr  0.000
Zr141    0.094104566   13.889667883    7.091105692 XXXX 1      xx      Zr  0.000
Nb142    1.800890315   15.713199145    8.659556954 XXXX 1      xx      Nb  0.000
Ti143    3.580243334   14.081688802    7.064040696 XXXX 1      xx      Ti  0.000
Nb144    5.295484615   15.708909074    8.576236330 XXXX 1      xx      Nb  0.000
Zr145    7.035849383   13.872062328    6.866464237 XXXX 1      xx      Zr  0.000
Zr146    8.705765770   15.837500922    8.573057259 XXXX 1      xx      Zr  0.000
Zr147   10.437318938   13.934730846    6.878822804 XXXX 1      xx      Zr  0.000
Zr148   12.142766658   15.968114270    8.649356551 XXXX 1      xx      Zr  0.000
Zr149   13.682673248   13.830349208    6.967119615 XXXX 1      xx      Zr  0.000
Zr150   15.576838661   15.719880532    8.699481917 XXXX 1      xx      Zr  0.000
Zr151    0.081374699   -0.010037648   10.536846234 XXXX 1      xx      Zr  0.000
Nb152    1.701852897    1.881579444   12.128675095 XXXX 1      xx      Nb  0.000
Zr153    3.517686408    0.010074645   10.450189545 XXXX 1      xx      Zr  0.000
Ti154    5.323979727    1.773167146   12.240027557 XXXX 1      xx      Ti  0.000
Zr155    6.839240396   -0.037762059   10.427667464 XXXX 1      xx      Zr  0.000
Hf156    8.596971914    1.659453138   12.207925389 XXXX 1      xx      Hf  0.000
Ti157   10.423001322   -0.086792913   10.598177460 XXXX 1      xx      Ti  0.000
Zr158   12.257476367    1.806949749   12.031504342 XXXX 1      xx      Zr  0.000
Ti159   13.919602538   -0.018207383   10.598173509 XXXX 1      xx      Ti  0.000
Nb160   15.662072123    1.816722473   12.112437797 XXXX 1      xx      Nb  0.000
Nb161   -0.069273971    3.407670639   10.465281410 XXXX 1      xx      Nb  0.000
Zr162    1.705538970    5.132496247   12.100124767 XXXX 1      xx      Zr  0.000
Nb163    3.570788524    3.380717922   10.533745772 XXXX 1      xx      Nb  0.000
Nb164    5.233570429    5.103146417   12.217072232 XXXX 1      xx      Nb  0.000
Zr165    6.941400533    3.500593613   10.456198112 XXXX 1      xx      Zr  0.000
Ti166    8.713589314    5.331969746   12.264293461 XXXX 1      xx      Ti  0.000
Zr167   10.386587831    3.555710337   10.436638085 XXXX 1      xx      Zr  0.000
Zr168   12.216611871    5.170369801   12.269117402 XXXX 1      xx      Zr  0.000
Nb169   13.927583527    3.523383690   10.334664991 XXXX 1      xx      Nb  0.000
Zr170   15.640724142    5.059518303   12.170906246 XXXX 1      xx      Zr  0.000
Zr171   -0.160033662    6.953005279   10.392384363 XXXX 1      xx      Zr  0.000
Zr172    1.832625626    8.634466995   12.062777282 XXXX 1      xx      Zr  0.000
Ti173    3.680053789    6.903217258   10.529362100 XXXX 1      xx      Ti  0.000
Zr174    5.261594630    8.791369113   12.315313345 XXXX 1      xx      Zr  0.000
Zr175    6.833934558    6.950494115   10.499857622 XXXX 1      xx      Zr  0.000
Hf176    8.722073474    8.672195430   12.249524498 XXXX 1      xx      Hf  0.000
Ti177   10.558735613    6.975074420   10.563400673 XXXX 1      xx      Ti  0.000
Nb178   12.075312951    8.743472543   12.245238301 XXXX 1      xx      Nb  0.000
Zr179   13.856579140    6.952674361   10.490705415 XXXX 1      xx      Zr  0.000
Ti180   15.567550247    8.876879063   12.100572210 XXXX 1      xx      Ti  0.000
Zr181    0.107166854   10.538065173   10.520931599 XXXX 1      xx      Zr  0.000
Ti182    2.028060083   12.220568692   12.120528586 XXXX 1      xx      Ti  0.000
Ti183    3.687641271   10.412753072   10.441113604 XXXX 1      xx      Ti  0.000
Ti184    5.176906019   12.140361460   12.254353035 XXXX 1      xx      Ti  0.000
Zr185    6.872282288   10.429268828   10.417333028 XXXX 1      xx      Zr  0.000
Zr186    8.758551827   12.101669144   12.258690543 XXXX 1      xx      Zr  0.000
Ti187   10.475079087   10.376081757   10.547881086 XXXX 1      xx      Ti  0.000
Hf188   12.040636254   12.186889545   12.271763671 XXXX 1      xx      Hf  0.000
Nb189   13.680102698   10.427401019   10.601440491 XXXX 1      xx      Nb  0.000
Zr190   15.511789062   12.234642943   12.158006926 XXXX 1      xx      Zr  0.000
Zr191    0.181846148   13.930694657   10.434199721 XXXX 1      xx      Zr  0.000
Nb192    1.803547142   15.618133761   12.198860494 XXXX 1      xx      Nb  0.000
Zr193    3.619870159   14.088756876   10.471568408 XXXX 1      xx      Zr  0.000
Nb194    5.283672918   15.724237444   12.292068342 XXXX 1      xx      Nb  0.000
Zr195    6.963331499   13.985029621   10.501154499 XXXX 1      xx      Zr  0.000
Ti196    8.627709427   15.775111428   12.290909051 XXXX 1      xx      Ti  0.000
Zr197   10.378041781   14.026270663   10.436955255 XXXX 1      xx      Zr  0.000
Nb198   12.184564222   15.641941982   12.184713040 XXXX 1      xx      Nb  0.000
Zr199   13.628630501   13.962593497   10.367123955 XXXX 1      xx      Zr  0.000
Zr200   15.592944475   15.533186349   12.144987628 XXXX 1      xx      Zr  0.000
Hf201    0.030308567   -0.007380684   13.799958714 XXXX 1      xx      Hf  0.000
Zr202    1.603838417    1.667419828   15.766975236 XXXX 1      xx      Zr  0.000
Zr203    3.473224896    0.032508075   13.853145888 XXXX 1      xx      Zr  0.000
Nb204    5.305560923    1.647474435   15.547050486 XXXX 1      xx      Nb  0.000
Nb205    6.841798788   -0.078145765   13.926764391 XXXX 1      xx      Nb  0.000
Zr206    8.608097108    1.719139262   15.594978832 XXXX 1      xx      Zr  0.000
Zr207   10.528459589   -0.043086920   13.853091112 XXXX 1      xx      Zr  0.000
Zr208   12.292288601    1.741887222   15.776303272 XXXX 1      xx      Zr  0.000
Hf209   13.952669699    0.031694285   13.809991139 XXXX 1      xx      Hf  0.000
Zr210   15.663354983    1.692352646   15.758957311 XXXX 1      xx      Zr  0.000
Nb211   -0.075483284    3.368901238   13.908688816 XXXX 1      xx      Nb  0.000
Zr212    1.624146537    5.181853706   15.657708551 XXXX 1      xx      Zr  0.000
Zr213    3.514054436    3.405838096   13.908727064 XXXX 1      xx      Zr  0.000
Hf214    5.349380126    5.252324769   15.650842326 XXXX 1      xx      Hf  0.000
Nb215    6.893871254    3.491078526   13.841021713 XXXX 1      xx      Nb  0.000
Zr216    8.616575744    5.173118172   15.595552263 XXXX 1      xx      Zr  0.000
Zr217   10.407949327    3.420811809   13.890661010 XXXX 1      xx      Zr  0.000
Zr218   12.256599607    5.118060972   15.590555587 XXXX 1      xx      Zr  0.000
Ti219   14.069313265    3.361695262   13.944251063 XXXX 1      xx      Ti  0.000
Nb220   15.677245692    5.118685702   15.668122056 XXXX 1      xx      Nb  0.000
Zr221   -0.158949358    7.011242980   13.857019019 XXXX 1      xx      Zr  0.000
Zr222    1.685680236    8.536700714   15.781660305 XXXX 1      xx      Zr  0.000
Hf223    3.530579443    6.865452010   13.878775995 XXXX 1      xx      Hf  0.000
Zr224    5.299310788    8.609692275   15.687989851 XXXX 1      xx      Zr  0.000
Ti225    6.976134386    6.919505086   13.856924367 XXXX 1      xx      Ti  0.000
Nb226    8.715817259    8.682706174   15.513351673 XXXX 1      xx      Nb  0.000
Nb227   10.447939082    6.983637050   13.909940222 XXXX 1      xx      Nb  0.000
Zr228   12.148255425    8.744451458   15.696693133 XXXX 1      xx      Zr  0.000
Hf229   13.979629304    7.035475217   13.908667086 XXXX 1      xx      Hf  0.000
Zr230   15.627463797    8.771709593   15.822609890 XXXX 1      xx      Zr  0.000
Zr231    0.026657727   10.531102616   13.905343253 XXXX 1      xx      Zr  0.000
Hf232    1.873286399   12.422938217   15.751357995 XXXX 1      xx      Hf  0.000
Zr233    3.357904588   10.446801382   13.982145519 XXXX 1      xx      Zr  0.000
Zr234    5.129294054   12.279989651   15.617416020 XXXX 1      xx      Zr  0.000
Ti235    7.023100529   10.493285703   14.042727776 XXXX 1      xx      Ti  0.000
Ti236    8.830534342   12.224892803   15.415244778 XXXX 1      xx      Ti  0.000
Nb237   10.413495536   10.359417829   13.964232283 XXXX 1      xx      Nb  0.000
Ti238   11.993447203   12.205301326   15.510220843 XXXX 1      xx      Ti  0.000
Hf239   13.874659328   10.490686893   13.982466803 XXXX 1      xx      Hf  0.000
Ti240   15.650002668   12.304028780   15.646670065 XXXX 1      xx      Ti  0.000
Hf241    0.134026137   13.877836145   13.833506212 XXXX 1      xx      Hf  0.000
Zr242    1.810073850   15.652200775   15.765226633 XXXX 1      xx      Zr  0.000
Ti243    3.538225159   14.056140358   13.773370648 XXXX 1      xx      Ti  0.000
Ti244    5.139002066   15.651119503   15.638469924 XXXX 1      xx      Ti  0.000
Hf245    6.939567797   13.958063686   13.894843637 XXXX 1      xx      Hf  0.000
Ti246    8.667666089   15.696266834   15.477178742 XXXX 1      xx      Ti  0.000
Ti247   10.414880288   14.081727325   13.875486638 XXXX 1      xx      Ti  0.000
Zr248   12.250517390   15.670058735   15.695494416 XXXX 1      xx      Zr  0.000
Ti249   13.771737272   13.882677009   13.957228542 XXXX 1      xx      Ti  0.000
Zr250   15.652451389   15.587797542   15.650134052 XXXX 1      xx      Zr  0.000
end
end
